40 947
94 14
87 168
83 26
8 104
94 87
14 64
25 49
69 115
18 109
24 72
60 64
10 114
71 26
7 167
70 4
12 193
31 43
53 125
62 55
52 16
22 98
1 100
34 117
37 109
90 188
72 170
92 125
20 49
38 56
8 149
95 139
8 192
41 15
7 150
62 129
68 41
8 131
11 48
9 153
9 173
